(set-logic ALL)
(declare-fun seed0_I0_2 () Int)
(declare-fun seed0_I0_4 () Int)
(declare-fun seed0_I0_6 () Int)
(declare-fun seed0_PCTEMP_LHS_1 () Int)
(declare-fun seed0_PCTEMP_LHS_2 () Int)
(declare-fun seed0_PCTEMP_LHS_3 () Int)
(declare-fun seed0_T0_2 () String)
(declare-fun seed0_T0_4 () String)
(declare-fun seed0_T0_6 () String)
(declare-fun seed0_T1_2 () String)
(declare-fun seed0_T1_4 () String)
(declare-fun seed0_T1_6 () String)
(declare-fun seed0_T2_2 () String)
(declare-fun seed0_T2_4 () String)
(declare-fun seed0_T2_6 () String)
(declare-fun seed0_T3_2 () String)
(declare-fun seed0_T3_4 () String)
(declare-fun seed0_T3_6 () String)
(declare-fun seed0_T4_2 () String)
(declare-fun seed0_T4_4 () String)
(declare-fun seed0_T4_6 () String)
(declare-fun seed0_T5_2 () String)
(declare-fun seed0_T5_4 () String)
(declare-fun seed0_T5_6 () String)
(declare-fun seed0_T_4 () Bool)
(declare-fun seed0_T_5 () Bool)
(declare-fun seed0_T_6 () Bool)
(declare-fun seed0_T_SELECT_1 () Bool)
(declare-fun seed0_T_SELECT_2 () Bool)
(declare-fun seed0_T_SELECT_3 () Bool)
(declare-fun seed0_var_0xINPUT_18373 () String)
(assert (and (or (= seed0_T_SELECT_1 (not (= seed0_PCTEMP_LHS_1 (- 1)))) (xor (str.contains (str.++ seed0_T2_4 "UnLQ9N1BvJ") (str.++ seed0_T0_4 "bdMRWGA")) (str.contains (str.++ seed0_T3_2 "MCv0WBsAq") (str.++ seed0_T0_2 "Jwld")))) (or (ite seed0_T_SELECT_1 (and (= seed0_PCTEMP_LHS_1 (+ seed0_I0_2 0)) (= seed0_var_0xINPUT_18373 (str.++ seed0_T0_2 seed0_T1_2)) (= seed0_I0_2 (str.len seed0_T4_2)) (= 0 (str.len seed0_T0_2)) (= seed0_T1_2 (str.++ seed0_T2_2 seed0_T3_2)) (= seed0_T2_2 (str.++ seed0_T4_2 seed0_T5_2)) (= seed0_T5_2 "__utma=16886264.") (not (str.in_re seed0_T4_2 (re.++ (str.to_re "_") (str.to_re "_") (str.to_re "u") (str.to_re "t") (str.to_re "m") (str.to_re "a") (str.to_re "=") (str.to_re "1") (str.to_re "6") (str.to_re "8") (str.to_re "8") (str.to_re "6") (str.to_re "2") (str.to_re "6") (str.to_re "4") (str.to_re "."))))) (and (= seed0_PCTEMP_LHS_1 (- 1)) (= seed0_var_0xINPUT_18373 (str.++ seed0_T0_2 seed0_T1_2)) (= 0 (str.len seed0_T0_2)) (not (str.in_re seed0_T1_2 (re.++ (str.to_re "_") (str.to_re "_") (str.to_re "u") (str.to_re "t") (str.to_re "m") (str.to_re "a") (str.to_re "=") (str.to_re "1") (str.to_re "6") (str.to_re "8") (str.to_re "8") (str.to_re "6") (str.to_re "2") (str.to_re "6") (str.to_re "4") (str.to_re ".")))))) (str.<= (str.++ seed0_T5_2 "") (str.++ seed0_T1_6 "jK2n3Mw9F5t"))) (or (= seed0_T_SELECT_2 (not (= seed0_PCTEMP_LHS_2 (- 1)))) (xor (< (* seed0_I0_6 seed0_I0_2) (mod seed0_PCTEMP_LHS_3 seed0_I0_2)) (> (mod seed0_I0_4 seed0_PCTEMP_LHS_1) (- seed0_I0_2 (- 613))))) (or (ite seed0_T_SELECT_2 (and (= seed0_PCTEMP_LHS_2 (+ seed0_I0_4 0)) (= seed0_var_0xINPUT_18373 (str.++ seed0_T0_4 seed0_T1_4)) (= seed0_I0_4 (str.len seed0_T4_4)) (= 0 (str.len seed0_T0_4)) (= seed0_T1_4 (str.++ seed0_T2_4 seed0_T3_4)) (= seed0_T2_4 (str.++ seed0_T4_4 seed0_T5_4)) (= seed0_T5_4 "__utmb=16886264") (not (str.in_re seed0_T4_4 (re.++ (str.to_re "_") (str.to_re "_") (str.to_re "u") (str.to_re "t") (str.to_re "m") (str.to_re "b") (str.to_re "=") (str.to_re "1") (str.to_re "6") (str.to_re "8") (str.to_re "8") (str.to_re "6") (str.to_re "2") (str.to_re "6") (str.to_re "4"))))) (and (= seed0_PCTEMP_LHS_2 (- 1)) (= seed0_var_0xINPUT_18373 (str.++ seed0_T0_4 seed0_T1_4)) (= 0 (str.len seed0_T0_4)) (not (str.in_re seed0_T1_4 (re.++ (str.to_re "_") (str.to_re "_") (str.to_re "u") (str.to_re "t") (str.to_re "m") (str.to_re "b") (str.to_re "=") (str.to_re "1") (str.to_re "6") (str.to_re "8") (str.to_re "8") (str.to_re "6") (str.to_re "2") (str.to_re "6") (str.to_re "4")))))) (xor (> (* seed0_I0_4 seed0_I0_6) (mod seed0_I0_4 seed0_I0_2)) (>= (div seed0_I0_2 seed0_I0_4) (* seed0_I0_4 seed0_PCTEMP_LHS_1)))) (or (= seed0_T_SELECT_3 (not (= seed0_PCTEMP_LHS_3 (- 1)))) (xor (distinct (* seed0_PCTEMP_LHS_3 seed0_PCTEMP_LHS_3) (- seed0_I0_2 15)) (<= (div seed0_PCTEMP_LHS_2 seed0_I0_4) (div seed0_I0_6 seed0_PCTEMP_LHS_3)))) (or (ite seed0_T_SELECT_3 (and (= seed0_PCTEMP_LHS_3 (+ seed0_I0_6 0)) (= seed0_var_0xINPUT_18373 (str.++ seed0_T0_6 seed0_T1_6)) (= seed0_I0_6 (str.len seed0_T4_6)) (= 0 (str.len seed0_T0_6)) (= seed0_T1_6 (str.++ seed0_T2_6 seed0_T3_6)) (= seed0_T2_6 (str.++ seed0_T4_6 seed0_T5_6)) (= seed0_T5_6 "__utmc=16886264") (not (str.in_re seed0_T4_6 (re.++ (str.to_re "_") (str.to_re "_") (str.to_re "u") (str.to_re "t") (str.to_re "m") (str.to_re "c") (str.to_re "=") (str.to_re "1") (str.to_re "6") (str.to_re "8") (str.to_re "8") (str.to_re "6") (str.to_re "2") (str.to_re "6") (str.to_re "4"))))) (and (= seed0_PCTEMP_LHS_3 (- 1)) (= seed0_var_0xINPUT_18373 (str.++ seed0_T0_6 seed0_T1_6)) (= 0 (str.len seed0_T0_6)) (not (str.in_re seed0_T1_6 (re.++ (str.to_re "_") (str.to_re "_") (str.to_re "u") (str.to_re "t") (str.to_re "m") (str.to_re "c") (str.to_re "=") (str.to_re "1") (str.to_re "6") (str.to_re "8") (str.to_re "8") (str.to_re "6") (str.to_re "2") (str.to_re "6") (str.to_re "4")))))) (xor (> (* seed0_PCTEMP_LHS_2 seed0_PCTEMP_LHS_3) (- seed0_I0_4 (- 110))) (= (mod seed0_I0_2 seed0_PCTEMP_LHS_1) (* seed0_PCTEMP_LHS_3 seed0_PCTEMP_LHS_3)))) (or (= seed0_T_4 (= "-" seed0_var_0xINPUT_18373)) (not (distinct (* seed0_PCTEMP_LHS_3 seed0_PCTEMP_LHS_3) (mod seed0_I0_2 seed0_PCTEMP_LHS_1)))) (or (= seed0_T_5 (not seed0_T_4)) (= (+ seed0_PCTEMP_LHS_2 (- 187)) (- seed0_I0_6 (- 351)))) (or seed0_T_5 (or (str.suffixof (str.++ seed0_var_0xINPUT_18373 "vpCo1") (str.++ seed0_T1_6 "NcO8a9A5ver4")) (str.<= (str.++ seed0_T0_6 "z1") (str.++ seed0_T1_4 "yrR1F9MsLjm8CN3VphzY")))) (or (= seed0_T_6 (= "" seed0_var_0xINPUT_18373)) (xor (<= (* seed0_PCTEMP_LHS_1 seed0_I0_4) (- seed0_I0_4 (- 760))) (distinct (* seed0_I0_2 seed0_I0_6) (mod seed0_I0_4 seed0_PCTEMP_LHS_2)))) (or seed0_T_6 (xor (<= (mod seed0_I0_6 seed0_I0_4) (- seed0_PCTEMP_LHS_2 (- 416))) (distinct (- seed0_PCTEMP_LHS_3 573) (mod seed0_I0_2 seed0_I0_4))))))
(check-sat)
(exit)